15	3	2
3902	3902	3902	
34	459	523	
812	782	1430	
569	323	625	
637	723	836	
504	694	742	
671	968	1353	
606	690	1095	
941	770	1254	
226	64	125	
465	483	838	
136	764	1099	
467	94	109	
124	186	210	
570	551	780	
969	254	280	
